(set-logic SLIA)
(constraint (= (f "7 0 0 5 4 4") 3))
(constraint (= (f "0 0 2 3 3 0") 3))
(constraint (= (f "5 6 4 6 0 7") 4))
(constraint (= (f "0 4 5 0 0 2") 2))
(constraint (= (f "3 0 3 0 1 2") 2))
(constraint (= (f "5 3 2 5 6 1") 6))
(check-synth)
(synth-fun f ((_arg_0 String)) Int ((Start Int (ntInt)) (ntString String ((Str A) (str.++ ntString A))) (A String ((Str ConstString) (SubStr X P P))) (P Int ((Int ntInt) (Pos X Pattern ntInt Direction))) (Pattern String ((Str ConstString) "ProperCase" "CAPS" "lowercase" "Digits" "Alphabets" "Alphanumeric" "WhiteSpace" "ProperCaseWSpaces" "CAPSWSpaces" "lowercaseSpaces" "AlphabetsWSpaces")) (X String (_arg_0)) (ConstString String (_arg_0 "" " " "0")) (Direction Int (0 1)) (ntInt Int (-5 -4 -3 -2 -1 0 1 2 3 4 5))))
